unknown
(model
; cardinality of BoundSet is 2
(declare-sort BoundSet 0)
; rep: @uc_BoundSet_0
; rep: @uc_BoundSet_1
; cardinality of UnboundSet is 1
(declare-sort UnboundSet 0)
(declare-fun groundTerm_3 () UnboundSet)
(define-fun IsSnowboarding ((BOUND_VARIABLE_462 BoundSet)) Bool true)
(define-fun IsOnSmallPileOfSnow ((BOUND_VARIABLE_462 BoundSet)) Bool true)
(define-fun IsYoungSnowboarder ((BOUND_VARIABLE_462 BoundSet)) Bool false)
(define-fun IsYou ((BOUND_VARIABLE_462 BoundSet)) Bool false)
(define-fun IsSizingUp ((BOUND_VARIABLE_462 BoundSet)) Bool false)
)
sat
(model
; cardinality of BoundSet is 1
(declare-sort BoundSet 0)
; rep: @uc_BoundSet_0
; cardinality of UnboundSet is 1
(declare-sort UnboundSet 0)
(declare-fun groundTerm_9 () UnboundSet)
(define-fun IsSnowboarding ((BOUND_VARIABLE_520 BoundSet)) Bool true)
(define-fun IsOnSmallPileOfSnow ((BOUND_VARIABLE_520 BoundSet)) Bool true)
(define-fun IsYoungSnowboarder ((BOUND_VARIABLE_520 BoundSet)) Bool true)
(define-fun IsYou ((BOUND_VARIABLE_520 BoundSet)) Bool false)
(define-fun IsSizingUp ((BOUND_VARIABLE_520 BoundSet)) Bool false)
)
